p cnf 20 20
-7 -15 -16 0
-10 -12 -19 0
-19 -7 18 0
9 3 13 0
6 18 5 0
14 -9 4 0
-2 8 6 0
10 -13 -18 0
-15 -7 -16 0
10 -17 -9 0
2 4 -9 0
-2 -13 3 0
-19 13 14 0
16 1 -17 0
7 -13 11 0
13 -15 18 0
3 6 -15 0
-2 19 -14 0
-20 -16 11 0
17 -16 -12 0
